&CONTROL
	calculation = ''
        outdir = './out'
/
&SYSTEM
   ecutwfc          = 80
   ecutrho          = 320
   occupations      = 'fixed'
   ntyp             = 3
   nat              = 5
   ibrav            = 0
/
&ELECTRONS
   conv_thr         = 1e-14
/
&IONS
/
&CELL
	press = 0
	press_conv_thr = 0.05
/

ATOMIC_SPECIES
Cs 132.90545196 Cs-nc-pbesol.upf
Sn 118.71 Sn-nc-pbesol.upf
I 126.90447 I-nc-pbesol.upf

K_POINTS automatic
8 8 8  1 1 1

CELL_PARAMETERS angstrom
6.1821206415142775  0.0000000000000000  0.0000000000000000
0.0000000000000000  6.1821206415142775  0.0000000000000000
0.0000000000000000  0.0000000000000000  6.1821206415142775

ATOMIC_POSITIONS angstrom
Cs    3.0910603207571383  3.0910603207571383  3.0910603207571383
Sn    0.0000000000000000  0.0000000000000000  0.0000000000000000
I    3.0910603207571383  0.0000000000000000  0.0000000000000000
I    0.0000000000000000  0.0000000000000000  3.0910603207571383
I    0.0000000000000000  3.0910603207571383  0.0000000000000000
