 &input
  fildyn = 'harmdyn_support',
  asr = 'crystal'
 /
