 &control
    calculation='scf'
    restart_mode='from_scratch',
    prefix='Sieels'
    pseudo_dir = '../../pseudo'
    outdir='./tempdir'
 /
 &system
    ibrav = 2,
    celldm(1) = 10.26,
    nat = 2,
    ntyp = 1,
    ecutwfc = 20.0
 /
 &electrons
    conv_thr =  1.0d-10
 /
ATOMIC_SPECIES
Si  28.08  Si.upf
ATOMIC_POSITIONS {alat}
Si 0.00 0.00 0.00
Si 0.25 0.25 0.25
K_POINTS {automatic}
12 12 12 1 1 1
